# Solution for model r10_t9_m8_0
# Finished Task: 9 / 9
# Makespan: 430.0, Total Distance: 81.0, Total Time: 1.5727
# R O S F
0 0 -1 0.0 0.0
1 1 15 7.0 7.0
2 2 11 58.0 58.0
3 3 17 65.0 65.0
4 4 -1 24.0 24.0
5 5 16 22.0 22.0
6 6 -1 0.0 0.0
7 7 -1 31.0 31.0
8 8 -1 63.0 63.0
9 9 18 0.0 0.0
10 5 -1 372.0 395.0
11 2 14 163.0 196.0
12 1 -1 305.0 328.0
13 9 -1 395.0 430.0
14 2 -1 294.0 333.0
15 1 12 170.0 201.0
16 5 10 138.0 170.0
17 3 -1 211.0 236.0
18 9 13 200.0 237.0
